p tw 28 42
1 8
1 14
1 16
2 5
2 23
2 26
3 12
3 18
3 25
4 14
4 15
4 27
5 6
5 21
6 11
6 28
7 17
7 24
7 28
8 20
8 22
9 12
9 19
9 25
10 12
10 17
10 20
11 23
11 26
13 22
13 24
13 27
14 23
15 19
15 26
16 19
16 21
17 18
18 24
20 28
21 27
22 25
